p cnf 966 2482
51 -2 -1 0
-51 2 0
-51 1 0
52 -51 -700 0
-52 51 0
-52 700 0
53 -701 -4 0
-53 701 0
-53 4 0
54 -53 -6 0
-54 53 0
-54 6 0
55 -702 -703 0
-55 702 0
-55 703 0
56 -704 -7 0
-56 704 0
-56 7 0
57 -56 -9 0
-57 56 0
-57 9 0
58 -705 -55 0
-58 705 0
-58 55 0
59 -11 -706 0
-59 11 0
-59 706 0
60 -59 -12 0
-60 59 0
-60 12 0
61 -707 -58 0
-61 707 0
-61 58 0
62 -14 -708 0
-62 14 0
-62 708 0
63 -62 -709 0
-63 62 0
-63 709 0
64 -710 -61 0
-64 710 0
-64 61 0
65 -16 -711 0
-65 16 0
-65 711 0
66 -65 -17 0
-66 65 0
-66 17 0
67 -712 -64 0
-67 712 0
-67 64 0
68 -19 -18 0
-68 19 0
-68 18 0
69 -68 -20 0
-69 68 0
-69 20 0
70 -713 -67 0
-70 713 0
-70 67 0
71 -714 -715 0
-71 714 0
-71 715 0
72 -71 -716 0
-72 71 0
-72 716 0
73 -717 -70 0
-73 717 0
-73 70 0
74 -718 -719 0
-74 718 0
-74 719 0
75 -74 -25 0
-75 74 0
-75 25 0
76 -720 -73 0
-76 720 0
-76 73 0
77 -716 -721 0
-77 716 0
-77 721 0
78 -77 -700 0
-78 77 0
-78 700 0
79 -722 -76 0
-79 722 0
-79 76 0
80 -723 -724 0
-80 723 0
-80 724 0
81 -80 -725 0
-81 80 0
-81 725 0
82 -726 -79 0
-82 726 0
-82 79 0
83 -29 -28 0
-83 29 0
-83 28 0
84 -83 -30 0
-84 83 0
-84 30 0
85 -727 -82 0
-85 727 0
-85 82 0
86 -31 -718 0
-86 31 0
-86 718 0
87 -86 -728 0
-87 86 0
-87 728 0
88 -729 -85 0
-88 729 0
-88 85 0
89 -26 -730 0
-89 26 0
-89 730 0
90 -89 -731 0
-90 89 0
-90 731 0
91 -732 -88 0
-91 732 0
-91 88 0
92 -33 -10 0
-92 33 0
-92 10 0
93 -92 -700 0
-93 92 0
-93 700 0
94 -733 -91 0
-94 733 0
-94 91 0
95 -734 -711 0
-95 734 0
-95 711 0
96 -95 -735 0
-96 95 0
-96 735 0
97 -736 -94 0
-97 736 0
-97 94 0
98 -18 -11 0
-98 18 0
-98 11 0
99 -98 -22 0
-99 98 0
-99 22 0
100 -737 -97 0
-100 737 0
-100 97 0
101 -28 -24 0
-101 28 0
-101 24 0
102 -101 -700 0
-102 101 0
-102 700 0
103 -738 -100 0
-103 738 0
-103 100 0
104 -36 -739 0
-104 36 0
-104 739 0
105 -104 -9 0
-105 104 0
-105 9 0
106 -740 -103 0
-106 740 0
-106 103 0
107 -741 -742 0
-107 741 0
-107 742 0
108 -107 -36 0
-108 107 0
-108 36 0
109 -743 -106 0
-109 743 0
-109 106 0
110 -744 -708 0
-110 744 0
-110 708 0
111 -110 -37 0
-111 110 0
-111 37 0
112 -745 -109 0
-112 745 0
-112 109 0
113 -27 -19 0
-113 27 0
-113 19 0
114 -113 -8 0
-114 113 0
-114 8 0
115 -746 -112 0
-115 746 0
-115 112 0
116 -747 -711 0
-116 747 0
-116 711 0
117 -116 -35 0
-117 116 0
-117 35 0
118 -748 -115 0
-118 748 0
-118 115 0
119 -749 -7 0
-119 749 0
-119 7 0
120 -119 -3 0
-120 119 0
-120 3 0
121 -750 -118 0
-121 750 0
-121 118 0
122 -744 -711 0
-122 744 0
-122 711 0
123 -122 -18 0
-123 122 0
-123 18 0
124 -751 -121 0
-124 751 0
-124 121 0
125 -40 -39 0
-125 40 0
-125 39 0
126 -125 -41 0
-126 125 0
-126 41 0
127 -752 -124 0
-127 752 0
-127 124 0
128 -747 -37 0
-128 747 0
-128 37 0
129 -128 -22 0
-129 128 0
-129 22 0
130 -753 -127 0
-130 753 0
-130 127 0
131 -754 -744 0
-131 754 0
-131 744 0
132 -131 -739 0
-132 131 0
-132 739 0
133 -755 -130 0
-133 755 0
-133 130 0
134 -741 -714 0
-134 741 0
-134 714 0
135 -134 -730 0
-135 134 0
-135 730 0
136 -756 -133 0
-136 756 0
-136 133 0
137 -708 -711 0
-137 708 0
-137 711 0
138 -137 -735 0
-138 137 0
-138 735 0
139 -757 -136 0
-139 757 0
-139 136 0
140 -43 -758 0
-140 43 0
-140 758 0
141 -140 -22 0
-141 140 0
-141 22 0
142 -759 -139 0
-142 759 0
-142 139 0
143 -41 -1 0
-143 41 0
-143 1 0
144 -143 -760 0
-144 143 0
-144 760 0
145 -761 -142 0
-145 761 0
-145 142 0
146 -762 -763 0
-146 762 0
-146 763 0
147 -146 -764 0
-147 146 0
-147 764 0
148 -765 -145 0
-148 765 0
-148 145 0
149 -764 -35 0
-149 764 0
-149 35 0
150 -149 -8 0
-150 149 0
-150 8 0
151 -766 -148 0
-151 766 0
-151 148 0
152 -741 -30 0
-152 741 0
-152 30 0
153 -152 -19 0
-153 152 0
-153 19 0
154 -767 -151 0
-154 767 0
-154 151 0
155 -42 -768 0
-155 42 0
-155 768 0
156 -155 -7 0
-156 155 0
-156 7 0
157 -769 -154 0
-157 769 0
-157 154 0
158 -754 -708 0
-158 754 0
-158 708 0
159 -158 -770 0
-159 158 0
-159 770 0
160 -771 -157 0
-160 771 0
-160 157 0
161 -40 -14 0
-161 40 0
-161 14 0
162 -161 -772 0
-162 161 0
-162 772 0
163 -773 -160 0
-163 773 0
-163 160 0
164 -762 -30 0
-164 762 0
-164 30 0
165 -164 -718 0
-165 164 0
-165 718 0
166 -774 -163 0
-166 774 0
-166 163 0
167 -719 -21 0
-167 719 0
-167 21 0
168 -167 -775 0
-168 167 0
-168 775 0
169 -776 -166 0
-169 776 0
-169 166 0
170 -43 -747 0
-170 43 0
-170 747 0
171 -170 -2 0
-171 170 0
-171 2 0
172 -777 -169 0
-172 777 0
-172 169 0
173 -21 -18 0
-173 21 0
-173 18 0
174 -173 -19 0
-174 173 0
-174 19 0
175 -778 -172 0
-175 778 0
-175 172 0
176 -47 -15 0
-176 47 0
-176 15 0
177 -176 -779 0
-177 176 0
-177 779 0
178 -780 -175 0
-178 780 0
-178 175 0
179 -22 -779 0
-179 22 0
-179 779 0
180 -179 -6 0
-180 179 0
-180 6 0
181 -781 -178 0
-181 781 0
-181 178 0
182 -764 -14 0
-182 764 0
-182 14 0
183 -182 -721 0
-183 182 0
-183 721 0
184 -782 -181 0
-184 782 0
-184 181 0
185 -48 -709 0
-185 48 0
-185 709 0
186 -185 -36 0
-186 185 0
-186 36 0
187 -783 -184 0
-187 783 0
-187 184 0
188 -42 -37 0
-188 42 0
-188 37 0
189 -188 -730 0
-189 188 0
-189 730 0
190 -784 -187 0
-190 784 0
-190 187 0
191 -731 -18 0
-191 731 0
-191 18 0
192 -191 -36 0
-192 191 0
-192 36 0
193 -785 -190 0
-193 785 0
-193 190 0
194 -786 -21 0
-194 786 0
-194 21 0
195 -194 -20 0
-195 194 0
-195 20 0
196 -787 -193 0
-196 787 0
-196 193 0
197 -760 -741 0
-197 760 0
-197 741 0
198 -197 -38 0
-198 197 0
-198 38 0
199 -788 -196 0
-199 788 0
-199 196 0
200 -49 -30 0
-200 49 0
-200 30 0
201 -200 -789 0
-201 200 0
-201 789 0
202 -790 -199 0
-202 790 0
-202 199 0
203 -734 -749 0
-203 734 0
-203 749 0
204 -203 -25 0
-204 203 0
-204 25 0
205 -791 -202 0
-205 791 0
-205 202 0
206 -754 -23 0
-206 754 0
-206 23 0
207 -206 -792 0
-207 206 0
-207 792 0
208 -793 -205 0
-208 793 0
-208 205 0
209 -48 -768 0
-209 48 0
-209 768 0
210 -209 -32 0
-210 209 0
-210 32 0
211 -794 -208 0
-211 794 0
-211 208 0
212 -709 -701 0
-212 709 0
-212 701 0
213 -212 -34 0
-213 212 0
-213 34 0
214 -795 -211 0
-214 795 0
-214 211 0
215 -45 -714 0
-215 45 0
-215 714 0
216 -215 -19 0
-216 215 0
-216 19 0
217 -796 -214 0
-217 796 0
-217 214 0
218 -44 -706 0
-218 44 0
-218 706 0
219 -218 -43 0
-219 218 0
-219 43 0
220 -797 -217 0
-220 797 0
-220 217 0
221 -719 -711 0
-221 719 0
-221 711 0
222 -221 -779 0
-222 221 0
-222 779 0
223 -798 -220 0
-223 798 0
-223 220 0
224 -799 -744 0
-224 799 0
-224 744 0
225 -224 -9 0
-225 224 0
-225 9 0
226 -800 -223 0
-226 800 0
-226 223 0
227 -754 -38 0
-227 754 0
-227 38 0
228 -227 -25 0
-228 227 0
-228 25 0
229 -801 -226 0
-229 801 0
-229 226 0
230 -779 -1 0
-230 779 0
-230 1 0
231 -230 -734 0
-231 230 0
-231 734 0
232 -802 -229 0
-232 802 0
-232 229 0
233 -758 -779 0
-233 758 0
-233 779 0
234 -233 -22 0
-234 233 0
-234 22 0
235 -803 -232 0
-235 803 0
-235 232 0
236 -786 -711 0
-236 786 0
-236 711 0
237 -236 -804 0
-237 236 0
-237 804 0
238 -805 -235 0
-238 805 0
-238 235 0
239 -40 -26 0
-239 40 0
-239 26 0
240 -239 -764 0
-240 239 0
-240 764 0
241 -806 -238 0
-241 806 0
-241 238 0
242 -30 -807 0
-242 30 0
-242 807 0
243 -242 -763 0
-243 242 0
-243 763 0
244 -808 -241 0
-244 808 0
-244 241 0
245 -723 -14 0
-245 723 0
-245 14 0
246 -245 -25 0
-246 245 0
-246 25 0
247 -809 -244 0
-247 809 0
-247 244 0
248 -36 -29 0
-248 36 0
-248 29 0
249 -248 -2 0
-249 248 0
-249 2 0
250 -810 -247 0
-250 810 0
-250 247 0
251 -807 -711 0
-251 807 0
-251 711 0
252 -251 -764 0
-252 251 0
-252 764 0
253 -811 -250 0
-253 811 0
-253 250 0
254 -42 -741 0
-254 42 0
-254 741 0
255 -254 -23 0
-255 254 0
-255 23 0
256 -812 -253 0
-256 812 0
-256 253 0
257 -744 -21 0
-257 744 0
-257 21 0
258 -257 -50 0
-258 257 0
-258 50 0
259 -813 -256 0
-259 813 0
-259 256 0
260 -719 -724 0
-260 719 0
-260 724 0
261 -260 -770 0
-261 260 0
-261 770 0
262 -814 -259 0
-262 814 0
-262 259 0
263 -49 -45 0
-263 49 0
-263 45 0
264 -263 -711 0
-264 263 0
-264 711 0
265 -815 -262 0
-265 815 0
-265 262 0
266 -42 -807 0
-266 42 0
-266 807 0
267 -266 -799 0
-267 266 0
-267 799 0
268 -816 -265 0
-268 816 0
-268 265 0
269 -38 -20 0
-269 38 0
-269 20 0
270 -269 -721 0
-270 269 0
-270 721 0
271 -817 -268 0
-271 817 0
-271 268 0
272 -21 -5 0
-272 21 0
-272 5 0
273 -272 -32 0
-273 272 0
-273 32 0
274 -818 -271 0
-274 818 0
-274 271 0
275 -31 -807 0
-275 31 0
-275 807 0
276 -275 -735 0
-276 275 0
-276 735 0
277 -819 -274 0
-277 819 0
-277 274 0
278 -768 -33 0
-278 768 0
-278 33 0
279 -278 -2 0
-279 278 0
-279 2 0
280 -820 -277 0
-280 820 0
-280 277 0
281 -821 -730 0
-281 821 0
-281 730 0
282 -281 -8 0
-282 281 0
-282 8 0
283 -822 -280 0
-283 822 0
-283 280 0
284 -758 -716 0
-284 758 0
-284 716 0
285 -284 -734 0
-285 284 0
-285 734 0
286 -823 -283 0
-286 823 0
-286 283 0
287 -37 -28 0
-287 37 0
-287 28 0
288 -287 -7 0
-288 287 0
-288 7 0
289 -824 -286 0
-289 824 0
-289 286 0
290 -754 -16 0
-290 754 0
-290 16 0
291 -290 -825 0
-291 290 0
-291 825 0
292 -826 -289 0
-292 826 0
-292 289 0
293 -44 -741 0
-293 44 0
-293 741 0
294 -293 -3 0
-294 293 0
-294 3 0
295 -827 -292 0
-295 827 0
-295 292 0
296 -28 -711 0
-296 28 0
-296 711 0
297 -296 -33 0
-297 296 0
-297 33 0
298 -828 -295 0
-298 828 0
-298 295 0
299 -770 -10 0
-299 770 0
-299 10 0
300 -299 -36 0
-300 299 0
-300 36 0
301 -829 -298 0
-301 829 0
-301 298 0
302 -43 -807 0
-302 43 0
-302 807 0
303 -302 -704 0
-303 302 0
-303 704 0
304 -830 -301 0
-304 830 0
-304 301 0
305 -49 -744 0
-305 49 0
-305 744 0
306 -305 -6 0
-306 305 0
-306 6 0
307 -831 -304 0
-307 831 0
-307 304 0
308 -45 -742 0
-308 45 0
-308 742 0
309 -308 -36 0
-309 308 0
-309 36 0
310 -832 -307 0
-310 832 0
-310 307 0
311 -40 -708 0
-311 40 0
-311 708 0
312 -311 -799 0
-312 311 0
-312 799 0
313 -833 -310 0
-313 833 0
-313 310 0
314 -718 -14 0
-314 718 0
-314 14 0
315 -314 -3 0
-315 314 0
-315 3 0
316 -834 -313 0
-316 834 0
-316 313 0
317 -21 -779 0
-317 21 0
-317 779 0
318 -317 -772 0
-318 317 0
-318 772 0
319 -835 -316 0
-319 835 0
-319 316 0
320 -758 -807 0
-320 758 0
-320 807 0
321 -320 -15 0
-321 320 0
-321 15 0
322 -836 -319 0
-322 836 0
-322 319 0
323 -764 -749 0
-323 764 0
-323 749 0
324 -323 -7 0
-324 323 0
-324 7 0
325 -837 -322 0
-325 837 0
-325 322 0
326 -48 -754 0
-326 48 0
-326 754 0
327 -326 -34 0
-327 326 0
-327 34 0
328 -838 -325 0
-328 838 0
-328 325 0
329 -50 -754 0
-329 50 0
-329 754 0
330 -329 -46 0
-330 329 0
-330 46 0
331 -839 -328 0
-331 839 0
-331 328 0
332 -799 -731 0
-332 799 0
-332 731 0
333 -332 -5 0
-333 332 0
-333 5 0
334 -840 -331 0
-334 840 0
-334 331 0
335 -825 -731 0
-335 825 0
-335 731 0
336 -335 -804 0
-336 335 0
-336 804 0
337 -841 -334 0
-337 841 0
-337 334 0
338 -33 -1 0
-338 33 0
-338 1 0
339 -338 -27 0
-339 338 0
-339 27 0
340 -842 -337 0
-340 842 0
-340 337 0
341 -741 -28 0
-341 741 0
-341 28 0
342 -341 -742 0
-342 341 0
-342 742 0
343 -843 -340 0
-343 843 0
-343 340 0
344 -47 -40 0
-344 47 0
-344 40 0
345 -344 -4 0
-345 344 0
-345 4 0
346 -844 -343 0
-346 844 0
-346 343 0
347 -43 -41 0
-347 43 0
-347 41 0
348 -347 -731 0
-348 347 0
-348 731 0
349 -845 -346 0
-349 845 0
-349 346 0
350 -741 -23 0
-350 741 0
-350 23 0
351 -350 -768 0
-351 350 0
-351 768 0
352 -846 -349 0
-352 846 0
-352 349 0
353 -37 -29 0
-353 37 0
-353 29 0
354 -353 -789 0
-354 353 0
-354 789 0
355 -847 -352 0
-355 847 0
-355 352 0
356 -786 -44 0
-356 786 0
-356 44 0
357 -356 -731 0
-357 356 0
-357 731 0
358 -848 -355 0
-358 848 0
-358 355 0
359 -28 -709 0
-359 28 0
-359 709 0
360 -359 -2 0
-360 359 0
-360 2 0
361 -849 -358 0
-361 849 0
-361 358 0
362 -31 -23 0
-362 31 0
-362 23 0
363 -362 -734 0
-363 362 0
-363 734 0
364 -850 -361 0
-364 850 0
-364 361 0
365 -762 -11 0
-365 762 0
-365 11 0
366 -365 -35 0
-366 365 0
-366 35 0
367 -851 -364 0
-367 851 0
-367 364 0
368 -821 -23 0
-368 821 0
-368 23 0
369 -368 -804 0
-369 368 0
-369 804 0
370 -852 -367 0
-370 852 0
-370 367 0
371 -46 -24 0
-371 46 0
-371 24 0
372 -371 -34 0
-372 371 0
-372 34 0
373 -853 -370 0
-373 853 0
-373 370 0
374 -42 -719 0
-374 42 0
-374 719 0
375 -374 -792 0
-375 374 0
-375 792 0
376 -854 -373 0
-376 854 0
-376 373 0
377 -37 -15 0
-377 37 0
-377 15 0
378 -377 -7 0
-378 377 0
-378 7 0
379 -855 -376 0
-379 855 0
-379 376 0
380 -768 -15 0
-380 768 0
-380 15 0
381 -380 -17 0
-381 380 0
-381 17 0
382 -856 -379 0
-382 856 0
-382 379 0
383 -741 -724 0
-383 741 0
-383 724 0
384 -383 -19 0
-384 383 0
-384 19 0
385 -857 -382 0
-385 857 0
-385 382 0
386 -47 -770 0
-386 47 0
-386 770 0
387 -386 -27 0
-387 386 0
-387 27 0
388 -858 -385 0
-388 858 0
-388 385 0
389 -807 -15 0
-389 807 0
-389 15 0
390 -389 -716 0
-390 389 0
-390 716 0
391 -859 -388 0
-391 859 0
-391 388 0
392 -731 -742 0
-392 731 0
-392 742 0
393 -392 -8 0
-393 392 0
-393 8 0
394 -860 -391 0
-394 860 0
-394 391 0
395 -786 -775 0
-395 786 0
-395 775 0
396 -395 -861 0
-396 395 0
-396 861 0
397 -862 -394 0
-397 862 0
-397 394 0
398 -29 -14 0
-398 29 0
-398 14 0
399 -398 -768 0
-399 398 0
-399 768 0
400 -863 -397 0
-400 863 0
-400 397 0
401 -45 -789 0
-401 45 0
-401 789 0
402 -401 -731 0
-402 401 0
-402 731 0
403 -864 -400 0
-403 864 0
-403 400 0
404 -799 -37 0
-404 799 0
-404 37 0
405 -404 -46 0
-405 404 0
-405 46 0
406 -865 -403 0
-406 865 0
-406 403 0
407 -34 -723 0
-407 34 0
-407 723 0
408 -407 -3 0
-408 407 0
-408 3 0
409 -866 -406 0
-409 866 0
-409 406 0
410 -764 -18 0
-410 764 0
-410 18 0
411 -410 -728 0
-411 410 0
-411 728 0
412 -867 -409 0
-412 867 0
-412 409 0
413 -792 -724 0
-413 792 0
-413 724 0
414 -413 -718 0
-414 413 0
-414 718 0
415 -868 -412 0
-415 868 0
-415 412 0
416 -760 -701 0
-416 760 0
-416 701 0
417 -416 -725 0
-417 416 0
-417 725 0
418 -869 -415 0
-418 869 0
-418 415 0
419 -734 -719 0
-419 734 0
-419 719 0
420 -419 -861 0
-420 419 0
-420 861 0
421 -870 -418 0
-421 870 0
-421 418 0
422 -786 -45 0
-422 786 0
-422 45 0
423 -422 -754 0
-423 422 0
-423 754 0
424 -871 -421 0
-424 871 0
-424 421 0
425 -22 -20 0
-425 22 0
-425 20 0
426 -425 -34 0
-426 425 0
-426 34 0
427 -872 -424 0
-427 872 0
-427 424 0
428 -35 -30 0
-428 35 0
-428 30 0
429 -428 -12 0
-429 428 0
-429 12 0
430 -873 -427 0
-430 873 0
-430 427 0
431 -724 -789 0
-431 724 0
-431 789 0
432 -431 -804 0
-432 431 0
-432 804 0
433 -874 -430 0
-433 874 0
-433 430 0
434 -14 -10 0
-434 14 0
-434 10 0
435 -434 -34 0
-435 434 0
-435 34 0
436 -875 -433 0
-436 875 0
-436 433 0
437 -36 -34 0
-437 36 0
-437 34 0
438 -437 -772 0
-438 437 0
-438 772 0
439 -876 -436 0
-439 876 0
-439 436 0
440 -45 -779 0
-440 45 0
-440 779 0
441 -440 -34 0
-441 440 0
-441 34 0
442 -877 -439 0
-442 877 0
-442 439 0
443 -34 -709 0
-443 34 0
-443 709 0
444 -443 -25 0
-444 443 0
-444 25 0
445 -878 -442 0
-445 878 0
-445 442 0
446 -12 -4 0
-446 12 0
-446 4 0
447 -446 -17 0
-447 446 0
-447 17 0
448 -879 -445 0
-448 879 0
-448 445 0
449 -734 -11 0
-449 734 0
-449 11 0
450 -449 -3 0
-450 449 0
-450 3 0
451 -880 -448 0
-451 880 0
-451 448 0
452 -16 -10 0
-452 16 0
-452 10 0
453 -452 -5 0
-453 452 0
-453 5 0
454 -881 -451 0
-454 881 0
-454 451 0
455 -764 -45 0
-455 764 0
-455 45 0
456 -455 -34 0
-456 455 0
-456 34 0
457 -882 -454 0
-457 882 0
-457 454 0
458 -46 -730 0
-458 46 0
-458 730 0
459 -458 -36 0
-459 458 0
-459 36 0
460 -883 -457 0
-460 883 0
-460 457 0
461 -23 -709 0
-461 23 0
-461 709 0
462 -461 -17 0
-462 461 0
-462 17 0
463 -884 -460 0
-463 884 0
-463 460 0
464 -792 -38 0
-464 792 0
-464 38 0
465 -464 -804 0
-465 464 0
-465 804 0
466 -885 -463 0
-466 885 0
-466 463 0
467 -760 -39 0
-467 760 0
-467 39 0
468 -467 -9 0
-468 467 0
-468 9 0
469 -886 -466 0
-469 886 0
-469 466 0
470 -28 -779 0
-470 28 0
-470 779 0
471 -470 -2 0
-471 470 0
-471 2 0
472 -887 -469 0
-472 887 0
-472 469 0
473 -715 -14 0
-473 715 0
-473 14 0
474 -473 -25 0
-474 473 0
-474 25 0
475 -888 -472 0
-475 888 0
-475 472 0
476 -741 -10 0
-476 741 0
-476 10 0
477 -476 -14 0
-477 476 0
-477 14 0
478 -889 -475 0
-478 889 0
-478 475 0
479 -15 -730 0
-479 15 0
-479 730 0
480 -479 -731 0
-480 479 0
-480 731 0
481 -890 -478 0
-481 890 0
-481 478 0
482 -40 -25 0
-482 40 0
-482 25 0
483 -482 -725 0
-483 482 0
-483 725 0
484 -891 -481 0
-484 891 0
-484 481 0
485 -786 -16 0
-485 786 0
-485 16 0
486 -485 -12 0
-486 485 0
-486 12 0
487 -892 -484 0
-487 892 0
-487 484 0
488 -747 -719 0
-488 747 0
-488 719 0
489 -488 -700 0
-489 488 0
-489 700 0
490 -893 -487 0
-490 893 0
-490 487 0
491 -40 -718 0
-491 40 0
-491 718 0
492 -491 -704 0
-492 491 0
-492 704 0
493 -894 -490 0
-493 894 0
-493 490 0
494 -40 -741 0
-494 40 0
-494 741 0
495 -494 -9 0
-495 494 0
-495 9 0
496 -895 -493 0
-496 895 0
-496 493 0
497 -17 -16 0
-497 17 0
-497 16 0
498 -497 -770 0
-498 497 0
-498 770 0
499 -896 -496 0
-499 896 0
-499 496 0
500 -440 -36 0
-500 440 0
-500 36 0
501 -897 -499 0
-501 897 0
-501 499 0
502 -422 -31 0
-502 422 0
-502 31 0
503 -898 -501 0
-503 898 0
-503 501 0
504 -45 -42 0
-504 45 0
-504 42 0
505 -504 -12 0
-505 504 0
-505 12 0
506 -899 -503 0
-506 899 0
-506 503 0
507 -725 -701 0
-507 725 0
-507 701 0
508 -507 -700 0
-508 507 0
-508 700 0
509 -900 -506 0
-509 900 0
-509 506 0
510 -25 -749 0
-510 25 0
-510 749 0
511 -510 -9 0
-511 510 0
-511 9 0
512 -901 -509 0
-512 901 0
-512 509 0
513 -799 -739 0
-513 799 0
-513 739 0
514 -513 -721 0
-514 513 0
-514 721 0
515 -902 -512 0
-515 902 0
-515 512 0
516 -792 -739 0
-516 792 0
-516 739 0
517 -516 -4 0
-517 516 0
-517 4 0
518 -903 -515 0
-518 903 0
-518 515 0
519 -341 -40 0
-519 341 0
-519 40 0
520 -904 -518 0
-520 904 0
-520 518 0
521 -716 -18 0
-521 716 0
-521 18 0
522 -521 -772 0
-522 521 0
-522 772 0
523 -905 -520 0
-523 905 0
-523 520 0
524 -731 -704 0
-524 731 0
-524 704 0
525 -524 -9 0
-525 524 0
-525 9 0
526 -906 -523 0
-526 906 0
-526 523 0
527 -744 -1 0
-527 744 0
-527 1 0
528 -527 -40 0
-528 527 0
-528 40 0
529 -907 -526 0
-529 907 0
-529 526 0
530 -775 -789 0
-530 775 0
-530 789 0
531 -530 -728 0
-531 530 0
-531 728 0
532 -908 -529 0
-532 908 0
-532 529 0
533 -799 -30 0
-533 799 0
-533 30 0
534 -533 -24 0
-534 533 0
-534 24 0
535 -909 -532 0
-535 909 0
-535 532 0
536 -43 -723 0
-536 43 0
-536 723 0
537 -536 -758 0
-537 536 0
-537 758 0
538 -910 -535 0
-538 910 0
-538 535 0
539 -23 -742 0
-539 23 0
-539 742 0
540 -539 -7 0
-540 539 0
-540 7 0
541 -911 -538 0
-541 911 0
-541 538 0
542 -799 -807 0
-542 799 0
-542 807 0
543 -542 -728 0
-543 542 0
-543 728 0
544 -912 -541 0
-544 912 0
-544 541 0
545 -35 -724 0
-545 35 0
-545 724 0
546 -545 -17 0
-546 545 0
-546 17 0
547 -913 -544 0
-547 913 0
-547 544 0
548 -42 -21 0
-548 42 0
-548 21 0
549 -548 -6 0
-549 548 0
-549 6 0
550 -914 -547 0
-550 914 0
-550 547 0
551 -915 -1 0
-551 915 0
-551 1 0
552 -551 -768 0
-552 551 0
-552 768 0
553 -916 -550 0
-553 916 0
-553 550 0
554 -917 -724 0
-554 917 0
-554 724 0
555 -554 -2 0
-555 554 0
-555 2 0
556 -918 -553 0
-556 918 0
-556 553 0
557 -41 -735 0
-557 41 0
-557 735 0
558 -557 -728 0
-558 557 0
-558 728 0
559 -919 -556 0
-559 919 0
-559 556 0
560 -28 -719 0
-560 28 0
-560 719 0
561 -560 -701 0
-561 560 0
-561 701 0
562 -920 -559 0
-562 920 0
-562 559 0
563 -41 -742 0
-563 41 0
-563 742 0
564 -563 -731 0
-564 563 0
-564 731 0
565 -921 -562 0
-565 921 0
-565 562 0
566 -14 -730 0
-566 14 0
-566 730 0
567 -566 -770 0
-567 566 0
-567 770 0
568 -922 -565 0
-568 922 0
-568 565 0
569 -763 -6 0
-569 763 0
-569 6 0
570 -569 -772 0
-570 569 0
-570 772 0
571 -923 -568 0
-571 923 0
-571 568 0
572 -792 -789 0
-572 792 0
-572 789 0
573 -572 -5 0
-573 572 0
-573 5 0
574 -924 -571 0
-574 924 0
-574 571 0
575 -29 -23 0
-575 29 0
-575 23 0
576 -575 -41 0
-576 575 0
-576 41 0
577 -925 -574 0
-577 925 0
-577 574 0
578 -42 -16 0
-578 42 0
-578 16 0
579 -578 -704 0
-579 578 0
-579 704 0
580 -926 -577 0
-580 926 0
-580 577 0
581 -723 -742 0
-581 723 0
-581 742 0
582 -581 -764 0
-582 581 0
-582 764 0
583 -927 -580 0
-583 927 0
-583 580 0
584 -723 -10 0
-584 723 0
-584 10 0
585 -584 -11 0
-585 584 0
-585 11 0
586 -928 -583 0
-586 928 0
-586 583 0
587 -762 -19 0
-587 762 0
-587 19 0
588 -587 -704 0
-588 587 0
-588 704 0
589 -929 -586 0
-589 929 0
-589 586 0
590 -758 -4 0
-590 758 0
-590 4 0
591 -590 -2 0
-591 590 0
-591 2 0
592 -930 -589 0
-592 930 0
-592 589 0
593 -36 -27 0
-593 36 0
-593 27 0
594 -593 -3 0
-594 593 0
-594 3 0
595 -931 -592 0
-595 931 0
-595 592 0
596 -23 -730 0
-596 23 0
-596 730 0
597 -596 -734 0
-597 596 0
-597 734 0
598 -932 -595 0
-598 932 0
-598 595 0
599 -44 -41 0
-599 44 0
-599 41 0
600 -599 -46 0
-600 599 0
-600 46 0
601 -933 -598 0
-601 933 0
-601 598 0
602 -799 -23 0
-602 799 0
-602 23 0
603 -602 -17 0
-603 602 0
-603 17 0
604 -934 -601 0
-604 934 0
-604 601 0
605 -709 -804 0
-605 709 0
-605 804 0
606 -605 -725 0
-606 605 0
-606 725 0
607 -935 -604 0
-607 935 0
-607 604 0
608 -14 -742 0
-608 14 0
-608 742 0
609 -608 -36 0
-609 608 0
-609 36 0
610 -936 -607 0
-610 936 0
-610 607 0
611 -239 -17 0
-611 239 0
-611 17 0
612 -937 -610 0
-612 937 0
-612 610 0
613 -49 -13 0
-613 49 0
-613 13 0
614 -613 -47 0
-614 613 0
-614 47 0
615 -938 -612 0
-615 938 0
-615 612 0
616 -42 -739 0
-616 42 0
-616 739 0
617 -616 -4 0
-617 616 0
-617 4 0
618 -939 -615 0
-618 939 0
-618 615 0
619 -25 -24 0
-619 25 0
-619 24 0
620 -619 -2 0
-620 619 0
-620 2 0
621 -940 -618 0
-621 940 0
-621 618 0
622 -39 -706 0
-622 39 0
-622 706 0
623 -622 -764 0
-623 622 0
-623 764 0
624 -941 -621 0
-624 941 0
-624 621 0
625 -11 -701 0
-625 11 0
-625 701 0
626 -625 -716 0
-626 625 0
-626 716 0
627 -942 -624 0
-627 942 0
-627 624 0
628 -799 -747 0
-628 799 0
-628 747 0
629 -628 -22 0
-629 628 0
-629 22 0
630 -943 -627 0
-630 943 0
-630 627 0
631 -716 -749 0
-631 716 0
-631 749 0
632 -631 -2 0
-632 631 0
-632 2 0
633 -944 -630 0
-633 944 0
-633 630 0
634 -825 -5 0
-634 825 0
-634 5 0
635 -634 -27 0
-635 634 0
-635 27 0
636 -945 -633 0
-636 945 0
-636 633 0
637 -749 -730 0
-637 749 0
-637 730 0
638 -637 -735 0
-638 637 0
-638 735 0
639 -946 -636 0
-639 946 0
-639 636 0
640 -760 -26 0
-640 760 0
-640 26 0
641 -640 -34 0
-641 640 0
-641 34 0
642 -947 -639 0
-642 947 0
-642 639 0
643 -821 -762 0
-643 821 0
-643 762 0
644 -643 -725 0
-644 643 0
-644 725 0
645 -948 -642 0
-645 948 0
-645 642 0
646 -719 -749 0
-646 719 0
-646 749 0
647 -646 -716 0
-647 646 0
-647 716 0
648 -949 -645 0
-648 949 0
-648 645 0
649 -768 -716 0
-649 768 0
-649 716 0
650 -649 -861 0
-650 649 0
-650 861 0
651 -950 -648 0
-651 950 0
-651 648 0
652 -46 -735 0
-652 46 0
-652 735 0
653 -652 -728 0
-653 652 0
-653 728 0
654 -951 -651 0
-654 951 0
-654 651 0
655 -39 -30 0
-655 39 0
-655 30 0
656 -655 -701 0
-656 655 0
-656 701 0
657 -952 -654 0
-657 952 0
-657 654 0
658 -48 -40 0
-658 48 0
-658 40 0
659 -658 -34 0
-659 658 0
-659 34 0
660 -953 -657 0
-660 953 0
-660 657 0
661 -24 -742 0
-661 24 0
-661 742 0
662 -661 -700 0
-662 661 0
-662 700 0
663 -954 -660 0
-663 954 0
-663 660 0
664 -41 -861 0
-664 41 0
-664 861 0
665 -664 -704 0
-665 664 0
-665 704 0
666 -955 -663 0
-666 955 0
-666 663 0
667 -716 -724 0
-667 716 0
-667 724 0
668 -667 -6 0
-668 667 0
-668 6 0
669 -956 -666 0
-669 956 0
-669 666 0
670 -39 -709 0
-670 39 0
-670 709 0
671 -670 -3 0
-671 670 0
-671 3 0
672 -957 -669 0
-672 957 0
-672 669 0
673 -768 -758 0
-673 768 0
-673 758 0
674 -673 -716 0
-674 673 0
-674 716 0
675 -958 -672 0
-675 958 0
-675 672 0
676 -48 -789 0
-676 48 0
-676 789 0
677 -676 -764 0
-677 676 0
-677 764 0
678 -959 -675 0
-678 959 0
-678 675 0
679 -719 -779 0
-679 719 0
-679 779 0
680 -679 -46 0
-680 679 0
-680 46 0
681 -960 -678 0
-681 960 0
-681 678 0
682 -723 -719 0
-682 723 0
-682 719 0
683 -682 -27 0
-683 682 0
-683 27 0
684 -961 -681 0
-684 961 0
-684 681 0
685 -718 -21 0
-685 718 0
-685 21 0
686 -685 -3 0
-686 685 0
-686 3 0
687 -962 -684 0
-687 962 0
-687 684 0
688 -16 -7 0
-688 16 0
-688 7 0
689 -688 -704 0
-689 688 0
-689 704 0
690 -963 -687 0
-690 963 0
-690 687 0
691 -792 -37 0
-691 792 0
-691 37 0
692 -691 -725 0
-692 691 0
-692 725 0
693 -964 -690 0
-693 964 0
-693 690 0
694 -772 -711 0
-694 772 0
-694 711 0
695 -694 -735 0
-695 694 0
-695 735 0
696 -965 -693 0
-696 965 0
-696 693 0
697 -33 -701 0
-697 33 0
-697 701 0
698 -697 -2 0
-698 697 0
-698 2 0
699 -966 -696 0
-699 966 0
-699 696 0
-700 -3 0
700 3 0
-701 -5 0
701 5 0
-702 -54 0
702 54 0
-703 -52 0
703 52 0
-704 -8 0
704 8 0
-705 -57 0
705 57 0
-706 -10 0
706 10 0
-707 -60 0
707 60 0
-708 -13 0
708 13 0
-709 -15 0
709 15 0
-710 -63 0
710 63 0
-711 -1 0
711 1 0
-712 -66 0
712 66 0
-713 -69 0
713 69 0
-714 -21 0
714 21 0
-715 -17 0
715 17 0
-716 -22 0
716 22 0
-717 -72 0
717 72 0
-718 -24 0
718 24 0
-719 -23 0
719 23 0
-720 -75 0
720 75 0
-721 -6 0
721 6 0
-722 -78 0
722 78 0
-723 -26 0
723 26 0
-724 -16 0
724 16 0
-725 -27 0
725 27 0
-726 -81 0
726 81 0
-727 -84 0
727 84 0
-728 -32 0
728 32 0
-729 -87 0
729 87 0
-730 -4 0
730 4 0
-731 -19 0
731 19 0
-732 -90 0
732 90 0
-733 -93 0
733 93 0
-734 -34 0
734 34 0
-735 -9 0
735 9 0
-736 -96 0
736 96 0
-737 -99 0
737 99 0
-738 -102 0
738 102 0
-739 -35 0
739 35 0
-740 -105 0
740 105 0
-741 -37 0
741 37 0
-742 -11 0
742 11 0
-743 -108 0
743 108 0
-744 -28 0
744 28 0
-745 -111 0
745 111 0
-746 -114 0
746 114 0
-747 -38 0
747 38 0
-748 -117 0
748 117 0
-749 -12 0
749 12 0
-750 -120 0
750 120 0
-751 -123 0
751 123 0
-752 -126 0
752 126 0
-753 -129 0
753 129 0
-754 -42 0
754 42 0
-755 -132 0
755 132 0
-756 -135 0
756 135 0
-757 -138 0
757 138 0
-758 -31 0
758 31 0
-759 -141 0
759 141 0
-760 -44 0
760 44 0
-761 -144 0
761 144 0
-762 -45 0
762 45 0
-763 -40 0
763 40 0
-764 -46 0
764 46 0
-765 -147 0
765 147 0
-766 -150 0
766 150 0
-767 -153 0
767 153 0
-768 -41 0
768 41 0
-769 -156 0
769 156 0
-770 -33 0
770 33 0
-771 -159 0
771 159 0
-772 -2 0
772 2 0
-773 -162 0
773 162 0
-774 -165 0
774 165 0
-775 -18 0
775 18 0
-776 -168 0
776 168 0
-777 -171 0
777 171 0
-778 -174 0
778 174 0
-779 -20 0
779 20 0
-780 -177 0
780 177 0
-781 -180 0
781 180 0
-782 -183 0
782 183 0
-783 -186 0
783 186 0
-784 -189 0
784 189 0
-785 -192 0
785 192 0
-786 -49 0
786 49 0
-787 -195 0
787 195 0
-788 -198 0
788 198 0
-789 -14 0
789 14 0
-790 -201 0
790 201 0
-791 -204 0
791 204 0
-792 -48 0
792 48 0
-793 -207 0
793 207 0
-794 -210 0
794 210 0
-795 -213 0
795 213 0
-796 -216 0
796 216 0
-797 -219 0
797 219 0
-798 -222 0
798 222 0
-799 -43 0
799 43 0
-800 -225 0
800 225 0
-801 -228 0
801 228 0
-802 -231 0
802 231 0
-803 -234 0
803 234 0
-804 -7 0
804 7 0
-805 -237 0
805 237 0
-806 -240 0
806 240 0
-807 -29 0
807 29 0
-808 -243 0
808 243 0
-809 -246 0
809 246 0
-810 -249 0
810 249 0
-811 -252 0
811 252 0
-812 -255 0
812 255 0
-813 -258 0
813 258 0
-814 -261 0
814 261 0
-815 -264 0
815 264 0
-816 -267 0
816 267 0
-817 -270 0
817 270 0
-818 -273 0
818 273 0
-819 -276 0
819 276 0
-820 -279 0
820 279 0
-821 -47 0
821 47 0
-822 -282 0
822 282 0
-823 -285 0
823 285 0
-824 -288 0
824 288 0
-825 -50 0
825 50 0
-826 -291 0
826 291 0
-827 -294 0
827 294 0
-828 -297 0
828 297 0
-829 -300 0
829 300 0
-830 -303 0
830 303 0
-831 -306 0
831 306 0
-832 -309 0
832 309 0
-833 -312 0
833 312 0
-834 -315 0
834 315 0
-835 -318 0
835 318 0
-836 -321 0
836 321 0
-837 -324 0
837 324 0
-838 -327 0
838 327 0
-839 -330 0
839 330 0
-840 -333 0
840 333 0
-841 -336 0
841 336 0
-842 -339 0
842 339 0
-843 -342 0
843 342 0
-844 -345 0
844 345 0
-845 -348 0
845 348 0
-846 -351 0
846 351 0
-847 -354 0
847 354 0
-848 -357 0
848 357 0
-849 -360 0
849 360 0
-850 -363 0
850 363 0
-851 -366 0
851 366 0
-852 -369 0
852 369 0
-853 -372 0
853 372 0
-854 -375 0
854 375 0
-855 -378 0
855 378 0
-856 -381 0
856 381 0
-857 -384 0
857 384 0
-858 -387 0
858 387 0
-859 -390 0
859 390 0
-860 -393 0
860 393 0
-861 -36 0
861 36 0
-862 -396 0
862 396 0
-863 -399 0
863 399 0
-864 -402 0
864 402 0
-865 -405 0
865 405 0
-866 -408 0
866 408 0
-867 -411 0
867 411 0
-868 -414 0
868 414 0
-869 -417 0
869 417 0
-870 -420 0
870 420 0
-871 -423 0
871 423 0
-872 -426 0
872 426 0
-873 -429 0
873 429 0
-874 -432 0
874 432 0
-875 -435 0
875 435 0
-876 -438 0
876 438 0
-877 -441 0
877 441 0
-878 -444 0
878 444 0
-879 -447 0
879 447 0
-880 -450 0
880 450 0
-881 -453 0
881 453 0
-882 -456 0
882 456 0
-883 -459 0
883 459 0
-884 -462 0
884 462 0
-885 -465 0
885 465 0
-886 -468 0
886 468 0
-887 -471 0
887 471 0
-888 -474 0
888 474 0
-889 -477 0
889 477 0
-890 -480 0
890 480 0
-891 -483 0
891 483 0
-892 -486 0
892 486 0
-893 -489 0
893 489 0
-894 -492 0
894 492 0
-895 -495 0
895 495 0
-896 -498 0
896 498 0
-897 -500 0
897 500 0
-898 -502 0
898 502 0
-899 -505 0
899 505 0
-900 -508 0
900 508 0
-901 -511 0
901 511 0
-902 -514 0
902 514 0
-903 -517 0
903 517 0
-904 -519 0
904 519 0
-905 -522 0
905 522 0
-906 -525 0
906 525 0
-907 -528 0
907 528 0
-908 -531 0
908 531 0
-909 -534 0
909 534 0
-910 -537 0
910 537 0
-911 -540 0
911 540 0
-912 -543 0
912 543 0
-913 -546 0
913 546 0
-914 -549 0
914 549 0
-915 -39 0
915 39 0
-916 -552 0
916 552 0
-917 -25 0
917 25 0
-918 -555 0
918 555 0
-919 -558 0
919 558 0
-920 -561 0
920 561 0
-921 -564 0
921 564 0
-922 -567 0
922 567 0
-923 -570 0
923 570 0
-924 -573 0
924 573 0
-925 -576 0
925 576 0
-926 -579 0
926 579 0
-927 -582 0
927 582 0
-928 -585 0
928 585 0
-929 -588 0
929 588 0
-930 -591 0
930 591 0
-931 -594 0
931 594 0
-932 -597 0
932 597 0
-933 -600 0
933 600 0
-934 -603 0
934 603 0
-935 -606 0
935 606 0
-936 -609 0
936 609 0
-937 -611 0
937 611 0
-938 -614 0
938 614 0
-939 -617 0
939 617 0
-940 -620 0
940 620 0
-941 -623 0
941 623 0
-942 -626 0
942 626 0
-943 -629 0
943 629 0
-944 -632 0
944 632 0
-945 -635 0
945 635 0
-946 -638 0
946 638 0
-947 -641 0
947 641 0
-948 -644 0
948 644 0
-949 -647 0
949 647 0
-950 -650 0
950 650 0
-951 -653 0
951 653 0
-952 -656 0
952 656 0
-953 -659 0
953 659 0
-954 -662 0
954 662 0
-955 -665 0
955 665 0
-956 -668 0
956 668 0
-957 -671 0
957 671 0
-958 -674 0
958 674 0
-959 -677 0
959 677 0
-960 -680 0
960 680 0
-961 -683 0
961 683 0
-962 -686 0
962 686 0
-963 -689 0
963 689 0
-964 -692 0
964 692 0
-965 -695 0
965 695 0
-966 -698 0
966 698 0
699 0
